33D32945 STP File, STP Format Version 1.0

SECTION Comments
Name "shell_n10_d4_s12"
Problem "Euclidean Steiner Tree Problem"
Remark "Generated with STPGenerator. 4 dimensions."
END

SECTION Graph
Nodes 10
END

SECTION Coordinates
DDDD 0 0.4127057900 -0.8107037342 -0.4136713104 0.0361860896
DDDD 1 0.3178842171 -0.0200682836 -0.9282471549 -0.1921044194
DDDD 2 -0.4420047999 -0.8516305173 -0.2787661035 -0.0405792841
DDDD 3 -0.1222542403 -0.1896618869 -0.8394358632 0.4943983222
DDDD 4 -0.0005952557 -0.0523930579 -0.6260654401 -0.7780081477
DDDD 5 0.2461446865 -0.2439904882 -0.5005286492 0.7933174058
DDDD 6 0.3356867750 -0.8019245124 0.2140786569 0.4454231630
DDDD 7 0.3447038501 -0.1989233328 -0.6248192150 -0.6717214542
DDDD 8 -0.0871211690 -0.9297194652 -0.3572274248 0.0204984105
DDDD 9 -0.7898186916 -0.2453983443 -0.1055517156 0.5521095203
END
